
--- Job WS_VD.gms Start 04/30/25 09:24:50 49.1.0 5c4d4ed6 WEX-WEI x86 64bit/MS Windows
--- Applying:
    C:\GAMS\49\gmsprmNT.txt
--- GAMS Parameters defined
    Input "C:\projekt\Velka data\WS_VD.gms"
    PageSize 0
    ScrDir "C:\projekt\Velka data\225a\"
    SysDir C:\GAMS\49\
    LogOption 3
    ErrMsg 1
    ErrorLog 99
    IDE 1
    LstTitleLeftAligned 1
Licensee: GAMS Demo, for EULA and demo limitations see   G250131/0001CB-GEN
          https://www.gams.com/latest/docs/UG%5FLicense.html         DC0000
          C:\GAMS\49\gamslice.txt
          Demo license for demonstration and instructional purposes only
System information: 12 physical cores and 16 Gb memory detected
GAMS 49.1.0   Copyright (C) 1987-2025 GAMS Development. All rights reserved
--- Starting compilation
--- WS_VD.gms(84) 3 Mb
--- Starting execution: elapsed 0:00:00.007
--- WS_VD.gms(54) 4 Mb
--- Generating LP model vyroba
--- WS_VD.gms(56) 4 Mb
--- LOOPS s = 1
---   17 rows  5 columns  45 non-zeroes
--- Range statistics (absolute non-zero finite values)
--- RHS       [min, max] : [ 2.000E+01, 4.500E+03] - Zero values observed as well
--- Bound     [min, max] : [        NA,        NA] - Zero values observed as well
--- Matrix    [min, max] : [ 1.000E+00, 1.500E+02]
--- Executing CPLEX (Solvelink=2): elapsed 0:00:00.014

IBM ILOG CPLEX   49.1.0 5c4d4ed6 Feb 15, 2025          WEI x86 64bit/MS Window

*** This solver runs with a demo license. No commercial use.
--- GMO setup time: 0.00s
--- GMO memory 0.50 Mb (peak 0.50 Mb)
--- Dictionary memory 0.00 Mb
--- Cplex 22.1.2.0 link memory 0.00 Mb (peak 0.00 Mb)
--- Starting Cplex

Version identifier: 22.1.2.0 | 2024-11-25 | 0edbb82fd
CPXPARAM_Advance                                 0
CPXPARAM_Simplex_Display                         2
CPXPARAM_MIP_Display                             4
CPXPARAM_MIP_Pool_Capacity                       0
CPXPARAM_MIP_Tolerances_AbsMIPGap                0
Tried aggregator 1 time.
LP Presolve eliminated 13 rows and 2 columns.
Reduced LP has 3 rows, 3 columns, and 9 nonzeros.
Presolve time = 0.00 sec. (0.01 ticks)

Iteration      Dual Objective            In Variable           Out Variable
     1           21155.735658                   x(3)         omez0(4) slack
     2           13468.739252                   x(1)         omez1(3) slack

--- LP status (3): infeasible.
--- Cplex Time: 0.00sec (det. 0.02 ticks)


Model has been proven infeasible

--- Reading solution for model vyroba
--- Executing after solve: elapsed 0:00:00.063
--- WS_VD.gms(54) 4 Mb
--- Generating LP model vyroba
--- WS_VD.gms(56) 4 Mb
--- LOOPS s = 2
---   17 rows  5 columns  45 non-zeroes
--- Range statistics (absolute non-zero finite values)
--- RHS       [min, max] : [ 2.000E+01, 4.500E+03] - Zero values observed as well
--- Bound     [min, max] : [        NA,        NA] - Zero values observed as well
--- Matrix    [min, max] : [ 1.000E+00, 1.500E+02]
--- Executing CPLEX (Solvelink=2): elapsed 0:00:00.063

IBM ILOG CPLEX   49.1.0 5c4d4ed6 Feb 15, 2025          WEI x86 64bit/MS Window

*** This solver runs with a demo license. No commercial use.
--- GMO setup time: 0.00s
--- GMO memory 0.50 Mb (peak 0.50 Mb)
--- Dictionary memory 0.00 Mb
--- Cplex 22.1.2.0 link memory 0.00 Mb (peak 0.00 Mb)
--- Starting Cplex

Version identifier: 22.1.2.0 | 2024-11-25 | 0edbb82fd
CPXPARAM_Advance                                 2
CPXPARAM_Simplex_Display                         2
CPXPARAM_MIP_Display                             4
CPXPARAM_MIP_Pool_Capacity                       0
CPXPARAM_MIP_Tolerances_AbsMIPGap                0
Tried aggregator 1 time.
LP Presolve eliminated 11 rows and 2 columns.
Reduced LP has 5 rows, 3 columns, and 15 nonzeros.
Presolve time = 0.00 sec. (0.01 ticks)

Iteration      Dual Objective            In Variable           Out Variable
     1           27541.412473                            2           24062.552096                   x(2)         omez0(4) slack
     3           22272.507688                   x(3)         omez0(2) slack

--- LP status (3): infeasible.
--- Cplex Time: 0.00sec (det. 0.03 ticks)


Model has been proven infeasible

--- Reading solution for model vyroba
--- Executing after solve: elapsed 0:00:00.111
--- WS_VD.gms(54) 4 Mb
--- Generating LP model vyroba
--- WS_VD.gms(56) 4 Mb
--- LOOPS s = 3
---   17 rows  5 columns  45 non-zeroes
--- Range statistics (absolute non-zero finite values)
--- RHS       [min, max] : [ 2.000E+01, 4.500E+03] - Zero values observed as well
--- Bound     [min, max] : [        NA,        NA] - Zero values observed as well
--- Matrix    [min, max] : [ 1.000E+00, 1.500E+02]
--- Executing CPLEX (Solvelink=2): elapsed 0:00:00.111

IBM ILOG CPLEX   49.1.0 5c4d4ed6 Feb 15, 2025          WEI x86 64bit/MS Window

*** This solver runs with a demo license. No commercial use.
--- GMO setup time: 0.00s
--- GMO memory 0.50 Mb (peak 0.50 Mb)
--- Dictionary memory 0.00 Mb
--- Cplex 22.1.2.0 link memory 0.00 Mb (peak 0.00 Mb)
--- Starting Cplex

Version identifier: 22.1.2.0 | 2024-11-25 | 0edbb82fd
CPXPARAM_Advance                                 0
CPXPARAM_Simplex_Display                         2
CPXPARAM_MIP_Display                             4
CPXPARAM_MIP_Pool_Capacity                       0
CPXPARAM_MIP_Tolerances_AbsMIPGap                0
Tried aggregator 1 time.
LP Presolve eliminated 10 rows and 2 columns.
Reduced LP has 6 rows, 3 columns, and 18 nonzeros.
Presolve time = 0.00 sec. (0.01 ticks)

Iteration      Dual Objective            In Variable           Out Variable
     1           24607.947761                   x(2)         omez0(2) slack

--- LP status (3): infeasible.
--- Cplex Time: 0.00sec (det. 0.02 ticks)


Model has been proven infeasible

--- Reading solution for model vyroba
--- Executing after solve: elapsed 0:00:00.163
--- WS_VD.gms(84) 4 Mb
--- Putfile out C:\projekt\Velka data\vysledky.txt
*** Status: Normal completion
--- Job WS_VD.gms Stop 04/30/25 09:24:50 elapsed 0:00:00.163
